(set-logic QF_S)
(declare-fun var0 () String)
(declare-fun var1 () String)
(declare-fun var2 () String)
(declare-fun var3 () String)
(declare-fun var4 () Int)
(declare-fun var5 () Int)
(declare-fun var6 () Int)
(assert (>= (str.len var0) (str.len "Y.`")))
(assert (str.contains var1 var2))
(assert (not (< (str.indexof "YO>uP1i" var3 var4) (str.to.int var1))))
(assert (>= var5 var6))
(check-sat)